18427422
37073025
37645807
48092435
19026777
31341879
19087179
17172221
27936937
39331629
15437562
43701941
45763844
26377355
24377559
12835054
36350045
44765946
7367789
13814390
28726138
42582063
38119242
20600442
39565042
28170306
41075409
18902330
40210230
44940994
15056905
28959901
12360624
13078452
43112045
40850230
15187270
10146034
37232217
28614856
42950615
22852553
42192942
32288911
5594339
32161935
14809690
25998715
29317555
22586816
18676667
18108625
46588883
41973770
38906250
10766129
9411164
43438691
40164062
34040281
